NAME: huelva1312 Wadadi sidelgaum
TYPE: TOUR
DIMENSION : 12
SOLUTION: 107.67433234167038
TOUR_SECTION
5(13.0,10.0),1(16.0,12.0),6(17.0,12.0),11(18.0,11.0),9(16.0,14.0),8(15.0,17.0),2(13.0,16.0),7(13.0,19.0),4(10.0,19.0),12(10.0,18.0),10(16.0,19.0),3(19.0,17.0)
3.605551275463989 - 5,1
1.0 - 1,6
1.4142135623730951 - 6,11
3.605551275463989 - 11,9
3.1622776601683795 - 9,8
2.23606797749979 - 8,2
3.0 - 2,7
3.0 - 7,4
1.0 - 4,12
6.082762530298219 - 12,10
3.605551275463989 - 10,3
9.219544457292887 - 3,5
EOF